NAME: Random_90_2
ELLAPSED_TIME_(ms): 1
TOUR_SIZE: 2817.0813
TOUR_SECTION
0
35
8
40
75
59
72
63
74
87
3
53
9
57
82
51
83
81
50
10
65
77
41
58
27
21
64
88
70
76
17
4
60
43
22
7
42
30
2
32
48
86
44
26
73
25
28
36
33
49
66
61
56
78
89
47
85
12
79
31
54
37
68
84
13
19
80
55
11
39
15
6
14
23
1
16
5
34
20
38
24
46
67
18
29
45
52
62
69
71
0
EOF
